38

C      -0.893958449398328     -0.893958449398328     -0.893958449398328
C       0.893958449398328      0.893958449398328     -0.893958449398328
C      -0.893958449398328      0.893958449398328      0.893958449398328
C       0.893958449398328     -0.893958449398328      0.893958449398328
C      -1.756280988817948      0.000000000000000      0.000000000000000
C       0.000000000000000      0.000000000000000     -1.756280988817948
C       0.000000000000000      1.756280988817948      0.000000000000000
C       0.000000000000000     -1.756280988817948      0.000000000000000
C       1.756280988817948      0.000000000000000      0.000000000000000
C       0.000000000000000      0.000000000000000      1.756280988817948
H      -2.406936458380029     -0.623880809580102      0.623880809580102
H       0.623880809580102     -0.623880809580102     -2.406936458380029
H       0.623880809580102      2.406936458380029      0.623880809580102
H      -0.623880809580102     -2.406936458380029      0.623880809580102
H       2.406936458380029     -0.623880809580102     -0.623880809580102
H       0.623880809580102      0.623880809580102      2.406936458380029
H      -0.623880809580102     -0.623880809580102      2.406936458380029
H       0.623880809580102     -2.406936458380029     -0.623880809580102
H       2.406936458380029      0.623880809580102      0.623880809580102
H      -2.406936458380029      0.623880809580102     -0.623880809580102
H      -0.623880809580102      0.623880809580102     -2.406936458380029
H      -0.623880809580102      2.406936458380029     -0.623880809580102
C      -1.771949918807402     -1.771949918807402     -1.771949918807402
C       1.771949918807402      1.771949918807402     -1.771949918807402
C      -1.771949918807402      1.771949918807402      1.771949918807402
C       1.771949918807402     -1.771949918807402      1.771949918807402
H       1.162537589217562      2.412366918376374     -2.412366918376374
H      -2.412366918376374      2.412366918376374      1.162537589217562
H      -2.412366918376374     -1.162537589217562     -2.412366918376374
H       2.412366918376374      1.162537589217562     -2.412366918376374
H      -1.162537589217562      2.412366918376374      2.412366918376374
H      -2.412366918376374     -2.412366918376374     -1.162537589217562
H       2.412366918376374      2.412366918376374     -1.162537589217562
H      -2.412366918376374      1.162537589217562      2.412366918376374
H      -1.162537589217562     -2.412366918376374     -2.412366918376374
H       1.162537589217562     -2.412366918376374      2.412366918376374
H       2.412366918376374     -2.412366918376374      1.162537589217562
H       2.412366918376374     -1.162537589217562      2.412366918376374
